StudentsNr = 10;
InstructorsNr = 89;
DaysNr = 1;
SlotsPerDay = 15;
AvailabilitySlotsLenght = 3;
RoomNr = 2;
ProgrammNr = 2;
DegreeNr = 3;
RolesNr = 1;
CoursesNr = 3;
InstructorsProgramm = [{2}, {1}, {1, 2}, {1}, {1}, {1, 2}, {1}, {1, 2}, {2}, {2}, {1}, {2}, {1, 2}, {2}, {1}, {2}, {2}, {2}, {1}, {1}, {1}, {1, 2}, {1}, {2}, {1, 2}, {1, 2}, {1}, {1, 2}, {1}, {1}, {1}, {1, 2}, {1}, {2}, {1, 2}, {2}, {1}, {2}, {2}, {2}, {1}, {1}, {1}, {1}, {1}, {1}, {1, 2}, {2}, {2}, {1, 2}, {1, 2}, {1}, {2}, {1}, {1}, {2}, {2}, {2}, {2}, {1}, {2}, {2}, {1}, {1}, {2}, {1}, {2}, {2}, {2}, {2}, {2}, {1, 2}, {1, 2}, {1}, {1, 2}, {1}, {1, 2}, {1}, {2}, {1}, {2}, {2}, {2}, {1}, {2}, {2}, {1}, {2}, {1}];
InstructorRolesPerProgramm = [|{2, 3, 4, 5, 11, 20, 23, 33, 37, 41, 43, 50, 51, 52, 54, 66, 73, 74, 76, 84}|{1, 3, 10, 17, 24, 36, 39, 40, 49, 50, 51, 58, 59, 61, 62, 69, 71, 73, 82, 86, 88}|];
InstructorsAvailability = [|1, 1, 0, 0, 0, |1, 1, 1, 1, 1, |0, 1, 1, 1, 1, |1, 0, 1, 0, 0, |0, 1, 1, 1, 1, |1, 1, 1, 1, 1, |0, 1, 1, 1, 1, |1, 1, 1, 0, 0, |1, 1, 1, 1, 1, |0, 1, 1, 1, 1, |1, 1, 1, 1, 1, |1, 1, 1, 1, 1, |0, 1, 1, 1, 1, |1, 1, 1, 1, 1, |0, 0, 1, 0, 1, |1, 1, 1, 1, 1, |0, 1, 0, 1, 1, |1, 1, 0, 0, 1, |0, 1, 0, 0, 0, |0, 1, 1, 0, 1, |0, 1, 1, 0, 1, |1, 1, 1, 1, 1, |1, 1, 1, 1, 1, |1, 0, 1, 0, 0, |0, 1, 0, 0, 1, |1, 1, 1, 1, 1, |0, 1, 1, 1, 0, |0, 1, 1, 1, 1, |0, 0, 1, 1, 1, |1, 1, 1, 1, 1, |1, 1, 1, 1, 0, |0, 1, 1, 0, 1, |1, 1, 1, 1, 0, |1, 1, 1, 1, 1, |0, 1, 1, 1, 1, |0, 1, 1, 1, 1, |0, 1, 1, 1, 1, |1, 1, 1, 1, 1, |0, 0, 1, 1, 1, |0, 1, 1, 1, 1, |1, 0, 0, 0, 1, |0, 0, 1, 0, 1, |1, 1, 1, 1, 1, |1, 1, 1, 0, 0, |1, 0, 0, 1, 0, |0, 1, 1, 1, 1, |1, 1, 1, 1, 1, |1, 1, 0, 1, 1, |1, 1, 0, 1, 1, |0, 1, 1, 1, 1, |0, 1, 1, 1, 1, |1, 1, 1, 1, 1, |0, 1, 1, 1, 0, |0, 1, 1, 1, 1, |0, 0, 0, 1, 1, |0, 1, 1, 0, 0, |1, 1, 1, 1, 1, |1, 1, 0, 0, 0, |0, 0, 0, 1, 1, |0, 0, 0, 1, 1, |0, 1, 0, 0, 1, |0, 1, 1, 0, 0, |0, 1, 1, 1, 0, |0, 1, 0, 0, 1, |0, 1, 1, 0, 1, |0, 1, 1, 1, 1, |1, 1, 1, 1, 1, |1, 1, 1, 0, 0, |1, 0, 1, 1, 0, |1, 1, 1, 1, 1, |1, 1, 1, 1, 1, |1, 1, 1, 1, 1, |0, 0, 0, 1, 0, |1, 1, 1, 0, 0, |1, 1, 1, 1, 1, |1, 1, 1, 1, 1, |1, 1, 1, 0, 1, |0, 1, 1, 1, 1, |1, 1, 1, 1, 1, |0, 0, 0, 1, 1, |1, 1, 0, 1, 1, |0, 1, 1, 1, 1, |1, 1, 1, 1, 1, |1, 1, 0, 0, 1, |1, 0, 1, 1, 0, |1, 1, 1, 1, 1, |1, 1, 1, 1, 1, |0, 0, 0, 0, 0, |0, 0, 1, 0, 0|];
StudentsProgramm = [2, 2, 1, 2, 2, 1, 2, 1, 2, 2];
StudentsDegree = [1, 2, 2, 1, 2, 2, 1, 2, 3, 3];
StudentsSupervisorId = [38, 83, 73, 50, 68, 21, 28, 63, 17, 73];
StudentsCourseIds = [{}, {2, 3}, {1, 2}, {}, {1, 3}, {1, 3}, {}, {2, 3}, {1}, {2}];
StudentsAvailability = [|1, 1, 1, 1, 1, |1, 1, 1, 0, 1, |1, 1, 1, 1, 1, |1, 1, 0, 1, 1, |1, 1, 1, 1, 1, |0, 0, 1, 1, 1, |1, 1, 1, 1, 1, |0, 1, 1, 1, 1, |1, 1, 1, 0, 1, |0, 1, 1, 1, 1|];
TheoryticalMinCard = [1, 0, 0, 0, 1, 0, 1, 1, 0, 0];
CoursesInstructorIds = [{1, 5, 8, 14, 15, 16, 21, 23, 24, 26, 27, 32, 33, 34, 37, 38, 42, 44, 45, 46, 49, 53, 54, 60, 61, 64, 65, 66, 69, 72, 74, 75, 81, 83, 85, 86, 87}, {1, 2, 4, 5, 6, 8, 9, 10, 11, 12, 13, 17, 18, 20, 21, 23, 25, 26, 31, 35, 36, 37, 40, 41, 42, 43, 45, 46, 47, 48, 50, 51, 56, 57, 59, 62, 66, 69, 72, 76, 81, 83, 86, 89}, {9, 11, 16, 30, 43, 46, 53, 73, 79, 81}];
RolesDemands = [10];
RolesContinuity = [];
ExamLen = [2, 2, 2, 2, 2, 2, 2, 2, 1, 1];
LunchTsMinLen = 0;
LunchStarts = [4..10];
SupervisorAvailable = 5;
OptimalLunchLenght = [3, 1];
OptimalStartTs = [2, 0];
OptimalFinishTs = [2, 15];
MinimizeRooms = 400;
RolesSoftContinuity = [|1|2|];
SameDegreeInRoom = 20;
Mergeability = 0;
